p cnf 150 30
x -1 3 8 9 -10 11 14 18 20 21 -23 24 -29 -30 -32 -35 36 37 39 40 45 50 51 -52 -54 -57 -60 -61 -64 -71 -72 -74 76 -83 84 -85 87 -88 -91 92 94 -95 -96 -97 101 -102 103 104 105 -106 -107 -114 -116 117 118 -119 125 -128 -130 -131 132 -135 -137 141 -142 -143 -146 147 -148 0
x 6 -8 9 -12 13 -16 -20 -23 24 27 28 -31 -32 -33 35 37 -39 -40 42 44 -46 -48 51 -53 -54 -55 -56 57 58 61 64 -66 -67 69 -72 75 76 -79 80 84 -85 88 -90 -92 -94 96 100 -103 105 -107 -108 -110 -116 118 -119 -120 121 122 -124 126 -128 129 -130 131 133 134 136 -137 -138 -139 -140 -141 -144 -146 147 148 -150 0
x 1 -4 -5 6 -7 -11 12 14 16 17 19 -20 22 23 25 -26 -28 -29 31 -32 -33 -37 38 40 41 42 43 44 -45 46 49 51 -52 -54 57 58 59 -61 -65 66 -68 70 -71 -75 76 -77 -79 -80 87 -88 -92 96 -99 100 103 104 106 107 108 -109 114 -115 -117 119 120 121 124 -128 132 135 -137 -139 140 143 -145 146 -147 0
x 1 2 3 4 -7 -8 -9 -15 -16 19 -20 21 24 25 27 32 -33 34 35 38 39 -41 42 -44 45 -48 50 -51 -52 53 54 -60 61 63 -65 68 72 73 -74 -75 -76 -77 78 -80 -81 -82 -87 89 -90 91 92 -93 95 -96 101 -102 104 105 110 117 120 122 123 125 127 -128 129 -132 133 136 -139 -142 -143 -145 -147 0
x -3 -4 -6 7 -9 -10 -12 13 -16 17 -18 20 -22 -24 27 -29 32 34 -35 38 39 -41 -42 -43 -46 -49 50 51 -52 -53 57 -58 -60 -62 -63 65 -66 74 75 -76 77 78 -82 83 -86 89 95 -96 -98 102 -105 -106 -107 -108 -109 -112 113 -115 -117 -118 119 -122 123 130 -131 -134 140 141 -143 144 145 148 0
x -5 7 -8 9 10 -13 14 15 16 -17 -19 -20 23 25 26 31 32 -36 37 -38 41 42 45 46 47 -49 -52 53 -55 56 57 61 66 67 68 -72 -73 77 -78 79 -82 84 -85 -86 -87 -89 -92 99 100 -101 -102 -103 -105 106 107 -109 111 -114 116 117 119 127 -130 131 -132 134 -136 137 138 -141 -142 143 144 -148 -149 -150 0
x 2 4 -5 -6 -7 -8 -10 -12 -14 15 17 -19 -22 23 25 29 30 -31 -32 -35 37 39 -43 -45 49 -50 52 53 58 59 62 -64 -67 -68 -72 74 76 79 -80 -81 82 87 -88 89 -91 -92 -93 -94 -95 96 -98 -104 105 108 111 113 115 -123 -124 125 -131 137 -139 -143 144 145 -149 -150 0
x 2 -3 4 5 14 -16 -17 -18 -20 -21 23 24 28 -32 34 -37 -41 47 48 -50 -51 52 55 56 -57 -58 59 -61 63 67 68 70 72 76 -77 -78 -87 -88 90 -91 93 -99 103 -104 -105 107 -109 -111 -113 114 -119 -123 -125 126 129 -131 -132 134 136 137 -138 140 141 -144 -146 -147 0
x 2 -3 -4 6 8 10 12 14 -16 17 -18 -20 22 -23 24 -34 35 38 39 -40 -42 45 46 -47 -48 49 50 -51 -52 -54 -56 -59 -63 -66 68 69 -72 -73 76 -77 -78 80 81 -82 -83 -88 -89 -92 93 -98 99 -100 -105 106 -109 -110 113 -114 115 -116 -117 119 -120 -121 124 125 127 128 -129 -130 131 -132 -137 -142 145 -146 149 150 0
x -2 -5 -6 -10 12 -13 14 -15 16 23 -26 27 28 29 34 35 -36 -37 40 42 45 -46 48 -51 -52 56 57 -58 -60 -62 64 65 66 67 71 73 -76 -77 -78 -79 82 -85 -90 -91 -92 103 104 106 108 -109 113 114 116 -117 -119 -122 -123 126 -128 129 -134 136 140 143 -144 -146 -147 -148 0
x 1 2 4 7 8 9 -10 14 -15 17 -18 19 20 -23 26 -28 29 -30 32 34 -35 -36 37 -38 40 41 44 46 -47 -49 -52 -53 55 -56 -61 -63 66 68 72 74 -75 -77 -78 79 81 82 -84 -86 -88 89 -90 92 -93 95 -96 97 100 -101 -103 104 105 107 -109 -111 -114 115 -117 118 -119 120 126 133 134 -135 -136 138 -140 -143 -144 -147 148 150 0
x -1 2 3 4 -7 -8 9 14 19 20 -24 31 32 -33 -34 35 -36 -40 41 43 44 -48 -50 -51 -56 -58 60 -62 -65 -66 -68 69 -70 -74 -77 79 81 83 88 -89 -93 96 97 -98 101 103 -106 107 108 -111 -113 119 -120 -121 -122 -123 -125 126 129 -130 -132 -133 135 136 138 -140 -141 -143 -145 146 0
x 1 -3 -7 8 -12 -13 16 17 18 19 20 21 -22 -24 -27 -28 29 32 33 -37 40 43 45 48 -50 56 57 -58 -62 64 65 -66 68 69 72 74 -76 77 78 -79 -82 84 85 -87 -88 89 -90 -91 -94 96 98 -99 -104 -105 107 108 -109 113 116 117 122 -125 -128 129 130 132 135 136 -137 139 -140 144 147 -148 -150 0
x 3 -4 5 6 -7 8 10 -11 13 -14 15 16 -19 21 25 -26 27 -28 30 31 -33 -35 37 39 41 -46 -47 48 51 52 -53 58 59 -60 61 63 64 -68 70 -73 76 84 86 -87 88 92 93 96 97 98 101 107 109 -112 113 114 -116 117 120 123 -124 -125 -126 -129 131 -132 -135 140 142 -143 146 -149 0
x 1 4 -8 -10 -11 12 13 16 17 -18 -21 -23 24 -25 27 -30 32 33 -35 -36 39 41 42 -46 -47 48 50 52 53 -55 -58 59 -65 -70 78 81 84 -85 87 -88 89 91 -92 94 -100 102 -104 -105 -106 -107 -108 110 -111 -113 117 118 119 -121 122 -123 124 -130 131 -132 133 135 140 141 142 -143 144 -145 -148 -150 0
x -2 3 -4 -6 7 10 11 13 -15 -16 19 -20 -23 25 31 32 -36 39 40 -41 -42 -46 -48 53 -54 -55 57 58 59 60 -62 66 70 -71 -75 -76 79 80 -81 82 83 -84 -85 92 -93 -94 95 -96 -99 -100 -102 103 -104 105 -110 -111 113 114 -117 118 -119 120 123 -124 -125 128 -130 131 132 134 -135 -140 141 142 146 -149 150 0
x 1 2 3 -4 -5 7 -8 -9 12 13 14 16 17 19 -20 -21 -25 27 30 -31 -32 -33 34 -35 36 40 -42 -43 -44 45 -46 47 48 -52 -53 54 -55 58 -64 65 68 -69 -70 -75 78 79 80 -82 -83 -84 85 88 -89 90 -91 100 101 -102 106 107 110 111 -113 -116 117 -119 121 123 124 -125 126 -127 128 131 -137 -140 143 -145 146 147 -148 -149 0
x 1 3 -7 -10 -11 12 13 16 -17 18 21 -22 24 25 -26 -27 30 -31 32 33 35 38 -42 -44 -45 -47 48 51 53 55 58 62 67 -71 -72 -73 -74 -77 -78 -79 -81 82 83 -84 85 -86 -88 -89 90 92 -94 -96 -97 98 -99 100 -102 -103 -104 -105 106 111 113 114 115 -116 -119 -121 122 124 125 -126 -128 131 138 139 -141 142 143 145 -150 0
x -1 -2 3 4 5 6 -7 -8 14 -15 19 -20 -21 -23 -24 -25 -27 -32 -33 34 -36 38 40 42 43 44 49 -50 -52 -54 56 -57 60 -61 62 -63 -66 -68 -70 71 72 -73 76 -77 79 82 -83 84 -86 -89 91 -95 -97 99 -102 -103 -105 107 -108 -111 -113 114 -118 -119 -122 123 124 -125 -126 127 133 -140 144 145 147 -148 -149 0
x 6 -10 11 13 14 -16 -17 21 -22 23 25 -27 30 -31 -32 -35 -42 -44 46 -47 -49 -50 -53 55 56 58 60 62 63 -64 -65 -68 -69 -70 72 75 76 -78 -79 -81 -83 -84 85 87 -88 89 -94 -96 98 -100 101 -102 -104 -105 106 -108 109 110 111 -114 -116 -117 118 -122 -123 -124 -125 -130 -133 134 -140 143 147 148 149 150 0
x 3 -6 9 -10 11 -13 15 17 18 19 20 -21 26 28 -31 -33 34 -35 36 37 -40 -41 42 -44 45 -46 -50 -53 55 -59 61 63 64 -67 -70 72 -74 76 77 78 80 82 -83 -84 -91 -92 94 -95 97 -99 100 -101 -103 104 106 -108 111 -114 -115 -117 118 120 121 -123 -128 131 132 133 134 -135 -138 139 141 142 143 -145 -146 -148 149 -150 0
x -2 3 4 -6 7 9 -12 13 -18 19 -21 -22 23 26 -27 28 -31 -33 34 35 -40 45 46 -48 50 -51 -52 54 -55 56 57 -58 -59 60 61 -66 68 72 -75 -77 -78 -81 82 -83 84 -85 -88 90 -93 94 -96 98 100 101 106 -108 114 -116 -118 121 122 125 126 -128 -129 -131 132 -133 134 137 -138 140 141 -142 -143 144 -145 147 -149 -150 0
x 3 4 5 -6 9 -15 -16 -17 -18 22 29 30 31 -34 -38 -39 -42 -47 48 49 -50 -53 -56 -60 62 -64 65 66 72 -73 -75 -76 -77 78 -80 -84 87 -89 -91 92 93 -95 96 97 -98 101 -102 105 -106 107 -108 -109 -112 -116 -118 125 -128 129 -130 -131 -133 134 135 137 -139 140 143 -145 146 149 0
x 2 -9 10 -11 -12 -13 15 -17 18 19 -20 -21 25 -26 29 30 32 -36 39 -43 -44 47 -48 51 52 53 54 -56 -57 -59 61 63 -66 -69 -73 74 76 80 81 -82 -84 88 -90 91 -93 94 96 97 98 -99 100 -106 -113 -114 115 117 118 119 121 122 125 -127 -128 -129 130 132 134 135 138 -140 -141 -142 144 148 149 150 0
x 1 -4 -5 -8 9 13 14 -16 -17 -18 -19 -21 22 -23 24 25 28 29 30 31 -34 -35 -36 38 -39 40 -41 -46 -47 51 -52 53 -55 58 60 -62 68 -69 70 73 -75 -76 77 -78 81 -86 -88 92 95 -96 -97 -100 -102 -103 -104 -107 108 -109 -110 -112 -113 -115 116 118 -121 -123 -126 127 130 -131 -134 135 -137 -138 -139 -142 143 -145 -146 147 -149 150 0
x 2 -3 7 -8 -11 -13 16 17 -18 20 -24 -26 27 28 30 35 37 -38 41 -43 -46 49 52 -54 55 -56 -57 58 -59 62 -65 -68 69 71 72 -74 -76 78 -80 83 -84 -86 87 88 91 -92 93 94 -96 99 -100 -105 -109 111 -113 -114 -115 116 117 120 -121 122 -123 124 126 -127 128 -131 132 -133 -135 -136 -137 139 142 144 -147 148 149 -150 0
x 4 6 -9 13 -15 -16 18 20 21 22 23 -24 25 -27 29 31 -35 -36 38 43 -44 -47 48 50 -51 -52 53 -55 60 -62 63 -66 -67 68 73 -74 -76 77 -80 -82 -83 -85 86 -87 -90 93 -94 -97 -99 -101 -104 106 -109 114 116 118 -124 128 -129 133 -134 135 -138 -140 141 143 144 146 -147 150 0
x 2 4 -5 6 -9 -14 17 -18 -19 24 26 -27 28 -30 -31 -33 -35 39 -42 44 -45 46 -47 51 -53 54 -60 61 -64 65 -66 67 69 -70 -71 73 75 76 78 -79 81 -83 85 89 91 -92 94 96 -97 99 100 -103 108 -109 110 111 112 113 -114 -116 117 118 121 -122 123 -124 -126 -127 -129 -130 131 135 -136 137 -138 -141 -142 -145 -146 -150 0
x 1 -2 3 4 5 -8 9 -10 12 -13 -17 20 -22 23 -27 31 32 -33 -35 36 38 42 -46 48 -50 -51 -52 -53 -54 -55 59 -60 -61 -62 -63 64 -66 67 -68 69 -71 72 74 -75 77 -78 80 81 82 -83 87 89 90 91 -93 -94 98 -103 104 105 106 -109 111 113 -114 116 -117 118 -120 -124 126 -127 130 131 -133 -134 -136 140 -144 -146 147 -148 150 0
x 4 6 -7 -8 -12 -16 -17 18 19 21 23 -24 -31 32 -36 37 -39 40 42 45 -46 -49 -50 52 -54 -55 -57 -58 -59 -62 -63 64 -65 -66 -68 -70 71 -72 73 -80 -83 -85 -92 94 96 99 -100 101 -104 110 -112 -113 118 -120 -123 124 -125 126 127 131 135 -136 137 -139 -140 -142 -143 -145 -146 -147 148 150 0
g -30